p cnf 20 11
a 1 2 3 0
e 4 0
a 5 0
e 6 0
a 7 0
e 8 0
a 9 0
e 10 11 0
a 12 13 0
e 14 0
a 15 0
e 16 17 18 0
a 19 0
e 20 0
15 -9 12 16 0
-20 -16 7 5 -14 0
-1 -9 3 11 12 0
-2 -15 16 -4 0
-5 9 16 15 0
-15 -17 -2 -13 0
7 14 -16 19 -20 0
2 1 5 4 0
-3 20 14 -5 0
4 -15 6 -20 19 0
5 8 -13 -16 17 0
